NAME : 10_3_3_2_(16).dat
COMMENT : Henke, Speranza, Wäscher, 2015
TYPE : MCVRP
DIMENSION : 11
EDGE_WEIGHT_TYPE : DISTANCE_MATRIX
CAPACITY : 1000
VEHICLES : 3
PRODUCT TYPES : 3
COMPARTMENTS : 3
NODE_COORD_SECTION
1 50 50
2 47.33 70
3 35.26 7.17
4 54.13 36.34
5 95.3 59.56
6 22.74 57.17
7 31.91 76.94
8 86.07 4.43
9 57.71 56.99
10 10.12 2.55
11 80.86 88.44
DEMAND_SECTION
1 0 0 0
2 128 66 0
3 0 83 12
4 192 22 0
5 0 102 64
6 162 0 42
7 17 0 55
8 36 14 0
9 53 0 59
10 171 64 0
11 0 106 72
DEPOT_SECTION
1
EOF